# Solution for model MODGLOB
# Objective value = 2.0740508086308241e+07
PRDHTXX 0
PRDHT15 2.3926784967970430e+04
PRGAZXX 0
PRGAZ15 0
TDHT0102 0
TDHT0104 0
TDHT0201 0
TDHT0205 0
TDHT0304 0
TDHT0306 0
TDHT0401 0
TDHT0403 636.074369387755
TDHT0405 0
TDHT0407 0
TDHT0502 8.4321097959183390e+01
TDHT0504 1.2543340786275196e+03
TDHT0508 0
TDHT0603 0
TDHT0607 0
TDHT0613 0
TDHT0704 0
TDHT0706 1.4646208102040669e+03
TDHT0708 0
TDHT0712 0
TDHT0805 2287.51854911889
TDHT0807 4.1693226651747818e+03
TDHT0809 0
TDHT0811 0
TDHT0908 7.3149969713200253e+03
TDHT0910 0
TDHT1009 7.5270957315510914e+03
TDHT1011 3.5256113025253876e+03
TDHT1015 0
TDHT1108 0
TDHT1110 0
TDHT1112 2.7807284389250553e+03
TDHT1116 0
TDHT1207 0
TDHT1211 0
TDHT1213 8.8906735259673110e+02
TDHT1217 0
TDHT1306 0
TDHT1312 0
TDHT1314 2.0505913387756186e+02
TDHT1318 0
TDHT1413 0
TDHT1419 0
TDHT1611 0
TDHT1617 6.3513194552036039e+03
TDHT1624 0
TDHT1615 0
TDHT1712 0
TDHT1716 0
TDHT1718 2.5307157828377121e+03
TDHT1723 1.7260336716618190e+03
TDHT1813 0
TDHT1817 0
TDHT1819 1.1767273616611312e+03
TDHT1822 8.8768593197001246e+02
TDHT1914 0
TDHT1918 0
TDHT1921 8.3846271676068852e+02
TDHT2021 0
TDHT2031 1.2635944244897961e+02
TDHT2119 0
TDHT2120 2.0470499025406082e+02
TDHT2122 0
TDHT2130 1.4285704857142858e+02
TDHT2218 0
TDHT2221 0
TDHT2223 0
TDHT2229 4.1549526530612241e+01
TDHT2317 0
TDHT2322 0
TDHT2324 0
TDHT2328 5.6971733142857522e+02
TDHT2416 0
TDHT2423 0
TDHT2425 0
TDHT2427 0
TDHT2524 9.6675954035691927e+02
TDHT2526 6.9772029956684617e+02
TDHT2515 0
TDHT2625 0
TDHT2627 2.1226919877551018e+02
TDHT2724 0
TDHT2726 0
TDHT2728 0
TDHT2823 0
TDHT2827 0
TDHT2829 0
TDHT2922 0
TDHT2928 0
TDHT2930 0
TDHT3021 0
TDHT3029 0
TDHT3031 0
TDHT3120 0
TDHT3130 0
TDHT1510 1.1370659078037224e+04
TDHT1516 7.6734093927253807e+03
TDHT1525 1.8288410068609694e+03
TGAZ0102 0
TGAZ0104 0
TGAZ0201 0
TGAZ0205 0
TGAZ0304 0
TGAZ0306 0
TGAZ0401 0
TGAZ0403 0
TGAZ0405 0
TGAZ0407 0
TGAZ0502 0
TGAZ0504 0
TGAZ0508 0
TGAZ0603 0
TGAZ0607 0
TGAZ0613 0
TGAZ0704 0
TGAZ0706 0
TGAZ0708 0
TGAZ0712 0
TGAZ0805 0
TGAZ0807 0
TGAZ0809 0
TGAZ0811 0
TGAZ0908 0
TGAZ0910 0
TGAZ1009 0
TGAZ1011 0
TGAZ1015 0
TGAZ1108 0
TGAZ1110 0
TGAZ1112 0
TGAZ1116 0
TGAZ1207 0
TGAZ1211 0
TGAZ1213 0
TGAZ1217 0
TGAZ1306 0
TGAZ1312 0
TGAZ1314 0
TGAZ1318 0
TGAZ1413 0
TGAZ1419 0
TGAZ1611 0
TGAZ1617 0
TGAZ1624 0
TGAZ1615 0
TGAZ1712 0
TGAZ1716 0
TGAZ1718 0
TGAZ1723 0
TGAZ1813 0
TGAZ1817 0
TGAZ1819 0
TGAZ1822 0
TGAZ1914 0
TGAZ1918 0
TGAZ1921 0
TGAZ2021 0
TGAZ2031 0
TGAZ2119 0
TGAZ2120 0
TGAZ2122 0
TGAZ2130 0
TGAZ2218 0
TGAZ2221 0
TGAZ2223 0
TGAZ2229 0
TGAZ2317 0
TGAZ2322 0
TGAZ2324 0
TGAZ2328 0
TGAZ2416 0
TGAZ2423 0
TGAZ2425 0
TGAZ2427 0
TGAZ2524 0
TGAZ2526 0
TGAZ2515 0
TGAZ2625 0
TGAZ2627 0
TGAZ2724 0
TGAZ2726 0
TGAZ2728 0
TGAZ2823 0
TGAZ2827 0
TGAZ2829 0
TGAZ2922 0
TGAZ2928 0
TGAZ2930 0
TGAZ3021 0
TGAZ3029 0
TGAZ3031 0
TGAZ3120 0
TGAZ3130 0
TGAZ1510 0
TGAZ1516 0
TGAZ1525 0
D01DHT 0
D01GAZ 0
D02DHT 0
D02GAZ 0
D03DHT 1
D03GAZ 0
D04DHT 1
D04GAZ 0
D05DHT 1
D05GAZ 0
D06DHT 0
D06GAZ 0
D07DHT 1
D07GAZ 0
D08DHT 0
D08GAZ 0
D09DHT 1
D09GAZ 0
D10DHT 1
D10GAZ 0
D11DHT 1
D11GAZ 0
D12DHT 1
D12GAZ 0
D13DHT 0
D13GAZ 0
D14DHT 0
D14GAZ 0
D15DHT 0
D15GAZ 0
D16DHT 1
D16GAZ 0
D17DHT 1
D17GAZ 0
D18DHT 1
D18GAZ 0
D19DHT 1
D19GAZ 0
D20DHT 0
D20GAZ 0
D21DHT 0
D21GAZ 0
D22DHT 0
D22GAZ 0
D23DHT 1
D23GAZ 0
D24DHT 0
D24GAZ 0
D25DHT 1
D25GAZ 0
D26DHT 1
D26GAZ 0
D27DHT 0
D27GAZ 0
D28DHT 1
D28GAZ 0
D29DHT 1
D29GAZ 0
D30DHT 1
D30GAZ 0
D31DHT 1
D31GAZ 0
D32DHT 1
D32GAZ 0
D33DHT 1
D33GAZ 0
D34DHT 1
D34GAZ 0
D35DHT 1
D35GAZ 0
D36DHT 0
D36GAZ 0
D37DHT 0
D37GAZ 0
D38DHT 1
D38GAZ 0
D39DHT 0
D39GAZ 0
D40DHT 1
D40GAZ 0
D41DHT 0
D41GAZ 0
D42DHT 1
D42GAZ 0
D43DHT 1
D43GAZ 0
D44DHT 1
D44GAZ 0
D45DHT 1
D45GAZ 0
D46DHT 0
D46GAZ 0
D47DHT 0
D47GAZ 0
D48DHT 0
D48GAZ 0
D49DHT 0
D49GAZ 0
CDHT01 0
CDHT02 69
CDHT03 520.5
CDHT04 495.299805
CDHT05 754.099854
CDHT06 1198.5
CDHT07 2188.799805
CDHT08 594.4
CDHT09 51.4
CDHT10 75.6
CDHT11 563.099854
CDHT12 1533.099854
CDHT13 556.299805
CDHT14 167.8
CDHT16 975.799805
CDHT17 1642.9
CDHT18 347.099854
CDHT19 262.799805
CDHT20 62
CDHT21 395.9
CDHT22 691.7
CDHT23 936.7
CDHT24 791.099854
CDHT25 106.7
CDHT26 393.7
CDHT27 173.7
CDHT28 466.2
CDHT29 34
CDHT30 116.9
CDHT31 103.4
CDHT15 552.099854
CGAZ01 0
CGAZ02 0
CGAZ03 0
CGAZ04 0
CGAZ05 0
CGAZ06 0
CGAZ07 0
CGAZ08 0
CGAZ09 0
CGAZ10 0
CGAZ11 0
CGAZ12 0
CGAZ13 0
CGAZ14 0
CGAZ16 0
CGAZ17 0
CGAZ18 0
CGAZ19 0
CGAZ20 0
CGAZ21 0
CGAZ22 0
CGAZ23 0
CGAZ24 0
CGAZ25 0
CGAZ26 0
CGAZ27 0
CGAZ28 0
CGAZ29 0
CGAZ30 0
CGAZ31 0
CGAZ15 0
CEHT01 0
CEHT02 0
CEHT03 0
CEHT04 0
CEHT05 0
CEHT06 0
CEHT07 0
CEHT08 0
CEHT09 0
CEHT10 0
CEHT11 0
CEHT12 0
CEHT13 0
CEHT14 0
CEHT16 0
CEHT17 0
CEHT18 0
CEHT19 0
CEHT20 0
CEHT21 0
CEHT22 0
CEHT23 0
CEHT24 0
CEHT25 0
CEHT26 0
CEHT27 0
CEHT28 0
CEHT29 0
CEHT30 0
CEHT31 0
CEHT15 0
CNEH01 1.5
CNEH02 0
CNEH03 0
CNEH04 0
CNEH05 0
CNEH06 0
CNEH07 0
CNEH08 0
CNEH09 0
CNEH10 0
CNEH11 0
CNEH12 0
CNEH13 0
CNEH14 0
CNEH16 0
CNEH17 0
CNEH18 0
CNEH19 0
CNEH20 0
CNEH21 0
CNEH22 0
CNEH23 0
CNEH24 0
CNEH25 0
CNEH26 0
CNEH27 0
CNEH28 0
CNEH29 0
CNEH30 0
CNEH31 0
CNEH15 0
